Cars = 1..200;
Options = 1..5;
Classes = 1..26;
sequenceMinCapacity = [0, 0, 0, 0, 0];
sequenceMaxCapacity = [1, 2, 1, 2, 1];
sequenceSize = [2, 3, 3, 5, 5];
numOrdered = [6, 8, 48, 12, 1, 15, 17, 3, 10, 6, 1, 8, 4, 1, 1, 5, 3, 1, 15, 19, 3, 2, 1, 1, 1, 8];
classHasOption = [| true, false,  true, false, false
                  | true, false, false,  true, false
                  |false,  true, false, false, false
                  |false,  true, false,  true, false
                  | true, false, false,  true,  true
                  | true,  true, false, false, false
                  |false, false,  true, false, false
                  | true,  true,  true,  true, false
                  |false, false, false, false,  true
                  |false,  true,  true, false, false
                  | true, false,  true, false,  true
                  | true,  true, false,  true, false
                  |false, false,  true, false,  true
                  | true,  true, false, false,  true
                  | true,  true,  true, false,  true
                  |false, false,  true,  true, false
                  | true, false, false, false,  true
                  |false, false, false,  true,  true
                  |false, false, false,  true, false
                  | true, false, false, false, false
                  |false,  true,  true,  true, false
                  | true, false,  true,  true, false
                  | true,  true, false,  true,  true
                  | true,  true,  true, false, false
                  |false, false,  true, false,  true
                  |false,  true, false, false, false|];
optionOrdering = [3, 1, 5, 4, 2];
